
n_res = 6;
rcap = [27, 33, 33, 29, 1515, 1547];
rtype = [1, 1, 1, 1, 2, 2];
n_tasks = 100;
modes =  [{1, 2, 3, 4, 5, 6}, {7, 8, 9, 10, 11, 12}, {13, 14, 15, 16, 17, 18}, {19, 20, 21, 22, 23, 24}, {25, 26, 27, 28, 29, 30}, {31, 32, 33, 34, 35, 36}, {37, 38, 39, 40, 41, 42}, {43, 44, 45, 46, 47, 48}, {49, 50, 51, 52, 53, 54}, {55, 56, 57, 58, 59, 60}, {61, 62, 63, 64, 65, 66}, {67, 68, 69, 70, 71, 72}, {73, 74, 75, 76, 77, 78}, {79, 80, 81, 82, 83, 84}, {85, 86, 87, 88, 89, 90}, {91, 92, 93, 94, 95, 96}, {97, 98, 99, 100, 101, 102}, {103, 104, 105, 106, 107, 108}, {109, 110, 111, 112, 113, 114}, {115, 116, 117, 118, 119, 120}, {121, 122, 123, 124, 125, 126}, {127, 128, 129, 130, 131, 132}, {133, 134, 135, 136, 137, 138}, {139, 140, 141, 142, 143, 144}, {145, 146, 147, 148, 149, 150}, {151, 152, 153, 154, 155, 156}, {157, 158, 159, 160, 161, 162}, {163, 164, 165, 166, 167, 168}, {169, 170, 171, 172, 173, 174}, {175, 176, 177, 178, 179, 180}, {181, 182, 183, 184, 185, 186}, {187, 188, 189, 190, 191, 192}, {193, 194, 195, 196, 197, 198}, {199, 200, 201, 202, 203, 204}, {205, 206, 207, 208, 209, 210}, {211, 212, 213, 214, 215, 216}, {217, 218, 219, 220, 221, 222}, {223, 224, 225, 226, 227, 228}, {229, 230, 231, 232, 233, 234}, {235, 236, 237, 238, 239, 240}, {241, 242, 243, 244, 245, 246}, {247, 248, 249, 250, 251, 252}, {253, 254, 255, 256, 257, 258}, {259, 260, 261, 262, 263, 264}, {265, 266, 267, 268, 269, 270}, {271, 272, 273, 274, 275, 276}, {277, 278, 279, 280, 281, 282}, {283, 284, 285, 286, 287, 288}, {289, 290, 291, 292, 293, 294}, {295, 296, 297, 298, 299, 300}, {301, 302, 303, 304, 305, 306}, {307, 308, 309, 310, 311, 312}, {313, 314, 315, 316, 317, 318}, {319, 320, 321, 322, 323, 324}, {325, 326, 327, 328, 329, 330}, {331, 332, 333, 334, 335, 336}, {337, 338, 339, 340, 341, 342}, {343, 344, 345, 346, 347, 348}, {349, 350, 351, 352, 353, 354}, {355, 356, 357, 358, 359, 360}, {361, 362, 363, 364, 365, 366}, {367, 368, 369, 370, 371, 372}, {373, 374, 375, 376, 377, 378}, {379, 380, 381, 382, 383, 384}, {385, 386, 387, 388, 389, 390}, {391, 392, 393, 394, 395, 396}, {397, 398, 399, 400, 401, 402}, {403, 404, 405, 406, 407, 408}, {409, 410, 411, 412, 413, 414}, {415, 416, 417, 418, 419, 420}, {421, 422, 423, 424, 425, 426}, {427, 428, 429, 430, 431, 432}, {433, 434, 435, 436, 437, 438}, {439, 440, 441, 442, 443, 444}, {445, 446, 447, 448, 449, 450}, {451, 452, 453, 454, 455, 456}, {457, 458, 459, 460, 461, 462}, {463, 464, 465, 466, 467, 468}, {469, 470, 471, 472, 473, 474}, {475, 476, 477, 478, 479, 480}, {481, 482, 483, 484, 485, 486}, {487, 488, 489, 490, 491, 492}, {493, 494, 495, 496, 497, 498}, {499, 500, 501, 502, 503, 504}, {505, 506, 507, 508, 509, 510}, {511, 512, 513, 514, 515, 516}, {517, 518, 519, 520, 521, 522}, {523, 524, 525, 526, 527, 528}, {529, 530, 531, 532, 533, 534}, {535, 536, 537, 538, 539, 540}, {541, 542, 543, 544, 545, 546}, {547, 548, 549, 550, 551, 552}, {553, 554, 555, 556, 557, 558}, {559, 560, 561, 562, 563, 564}, {565, 566, 567, 568, 569, 570}, {571, 572, 573, 574, 575, 576}, {577, 578, 579, 580, 581, 582}, {583, 584, 585, 586, 587, 588}, {589, 590, 591, 592, 593, 594}, {595, 596, 597, 598, 599, 600}];
succ =  [{41, 22, 16, 13, 12, 10, 5}, {22, 19, 15, 13, 10, 4}, {25, 23, 22, 20, 16, 13}, {41, 34, 29, 27, 25, 23, 21, 16}, {34, 29, 25, 23, 21, 18, 14}, {41, 29, 25, 15, 14}, {41, 25, 23, 14, 12}, {41, 19, 17, 13}, {41, 34, 25, 23, 21, 17}, {34, 31, 25, 21, 14}, {41, 39, 36, 34, 29, 27, 23, 21}, {38, 34, 29, 17}, {38, 34, 31, 28, 27, 26, 21}, {38, 27, 17}, {43, 39, 34, 26, 24, 23}, {38, 17}, {43, 39, 36, 35, 30, 28, 26, 24}, {43, 39, 37, 36, 35, 30, 26, 24}, {48, 38, 35, 34, 30, 26, 25}, {48, 43, 41, 39, 38, 34, 33, 26}, {43, 37, 30, 24}, {48, 47, 33, 32, 31, 28}, {48, 46, 40, 38, 37, 35, 31, 30}, {48, 47, 45, 33, 32}, {45, 43, 33, 32}, {47, 45, 40, 32}, {57, 51, 43, 40, 35}, {60, 57, 51, 45, 44, 42, 37}, {60, 57, 51, 45, 44, 37}, {60, 56, 51, 50, 49, 45, 44}, {60, 59, 57, 53, 51, 50, 49, 44}, {57, 56, 51, 50, 49, 44, 42}, {59, 57, 51, 46, 40}, {60, 51, 44, 37}, {60, 56, 55, 50, 49, 45}, {59, 56, 50, 44, 42}, {59, 55, 54, 53, 50, 49}, {59, 58, 57, 53, 52, 44}, {59, 58, 57, 54, 53, 49}, {60, 53, 52, 44}, {64, 63, 61, 59, 55, 53, 50}, {63, 62, 61, 55, 53, 52}, {62, 60, 58, 54, 53}, {69, 65, 62, 61, 55, 54}, {69, 61, 59, 54, 53}, {72, 68, 67, 63, 62, 61, 52}, {69, 62, 54, 53}, {75, 72, 70, 65, 62, 59, 58}, {80, 72, 62, 61, 52}, {75, 73, 72, 70, 66, 65, 62, 58}, {73, 72, 68, 66, 63, 62, 58}, {81, 76, 75, 73, 70, 69, 66, 65, 64}, {82, 76, 75, 74, 72, 70, 67, 65}, {76, 75, 73, 72, 68, 66, 64, 63}, {76, 75, 74, 73, 71, 68, 67}, {78, 75, 74, 73, 63, 62}, {80, 75, 74, 63, 62}, {82, 78, 74, 69, 67}, {81, 78, 74, 73, 71, 68}, {100, 82, 74, 70, 67}, {79, 78, 76, 74, 73, 70}, {84, 83, 79, 76, 71}, {100, 82, 79, 70}, {100, 90, 88, 84, 83, 82, 79, 77}, {100, 85, 83, 79, 78, 71}, {100, 82, 74, 71}, {88, 85, 84, 83, 81, 80, 79}, {100, 90, 88, 83, 82, 79, 77}, {100, 85, 83, 71}, {83, 71}, {96, 90, 88, 77}, {88, 83, 77}, {99, 97, 96, 90, 86, 85, 84}, {99, 97, 89, 86, 85, 83}, {100, 99, 98, 97, 93, 90, 89, 88, 85}, {100, 99, 98, 96, 90, 88, 87, 85}, {99, 98, 97, 95, 89, 87, 86}, {98, 97, 96, 90, 89, 88, 87}, {99, 96, 95, 89, 87, 86}, {98, 96, 95, 94, 87, 86}, {97, 96, 95, 90, 87}, {97, 87, 85}, {98, 96, 95, 92, 87}, {89, 87}, {95, 94, 92, 91}, {93, 92, 91}, {93, 91}, {94, 91}, {94}, {92}, {}, {}, {}, {}, {}, {}, {}, {}, {}, {}];
n_opt = 600;
dur = [3, 10, 16, 19, 20, 28, 2, 14, 18, 21, 29, 30, 4, 6, 15, 17, 23, 25, 3, 7, 8, 17, 18, 19, 7, 9, 10, 19, 20, 21, 5, 6, 18, 20, 25, 28, 3, 5, 6, 7, 20, 26, 3, 15, 23, 25, 27, 29, 4, 5, 12, 19, 21, 24, 8, 15, 19, 25, 26, 27, 13, 23, 24, 25, 29, 30, 8, 11, 17, 21, 22, 25, 1, 10, 13, 15, 20, 21, 6, 7, 8, 18, 21, 25, 5, 11, 12, 15, 19, 26, 15, 19, 20, 24, 25, 29, 3, 4, 6, 7, 15, 21, 6, 7, 17, 18, 21, 22, 5, 6, 8, 9, 25, 30, 8, 13, 15, 20, 27, 28, 8, 10, 21, 24, 25, 28, 4, 16, 17, 22, 27, 29, 11, 16, 23, 24, 25, 28, 2, 5, 6, 8, 9, 23, 2, 9, 18, 19, 20, 21, 5, 13, 14, 15, 22, 27, 6, 8, 10, 27, 29, 30, 1, 14, 17, 19, 22, 26, 3, 9, 12, 13, 18, 22, 3, 4, 6, 17, 19, 20, 6, 8, 13, 14, 21, 25, 11, 19, 21, 26, 27, 28, 2, 12, 13, 16, 17, 22, 10, 12, 17, 21, 25, 28, 2, 9, 14, 16, 26, 29, 9, 16, 17, 18, 25, 27, 8, 17, 18, 19, 20, 21, 1, 5, 17, 26, 27, 29, 3, 4, 9, 10, 28, 29, 8, 10, 12, 16, 21, 30, 6, 8, 11, 14, 20, 24, 11, 13, 20, 21, 24, 30, 7, 11, 20, 21, 22, 24, 5, 12, 17, 24, 25, 30, 2, 5, 10, 14, 18, 30, 10, 14, 15, 16, 17, 21, 2, 4, 7, 17, 26, 27, 9, 10, 11, 16, 23, 24, 3, 6, 7, 26, 27, 29, 2, 22, 25, 28, 29, 30, 4, 5, 9, 13, 24, 25, 7, 10, 11, 15, 18, 19, 17, 18, 20, 21, 26, 29, 1, 2, 13, 24, 26, 28, 3, 8, 16, 20, 21, 25, 8, 17, 22, 26, 27, 29, 1, 4, 14, 18, 20, 21, 1, 5, 15, 16, 28, 29, 2, 11, 14, 17, 19, 30, 3, 4, 5, 10, 22, 26, 4, 10, 17, 18, 19, 28, 4, 9, 18, 22, 24, 27, 6, 8, 14, 19, 25, 29, 5, 16, 20, 21, 25, 26, 14, 16, 17, 21, 22, 24, 2, 10, 23, 24, 26, 27, 4, 8, 9, 18, 22, 24, 4, 7, 8, 9, 23, 28, 8, 23, 24, 26, 27, 30, 11, 13, 15, 18, 28, 29, 1, 2, 3, 11, 13, 23, 8, 12, 13, 18, 23, 30, 1, 5, 7, 19, 21, 30, 3, 4, 7, 16, 20, 26, 1, 2, 8, 18, 22, 23, 2, 4, 5, 9, 24, 25, 1, 3, 6, 14, 21, 30, 7, 10, 13, 16, 17, 19, 1, 2, 3, 5, 19, 30, 9, 13, 15, 17, 20, 29, 2, 9, 10, 20, 21, 24, 1, 2, 4, 17, 18, 19, 1, 2, 8, 14, 18, 21, 2, 7, 8, 13, 14, 18, 1, 14, 19, 24, 27, 28, 2, 3, 6, 9, 25, 28, 12, 23, 24, 28, 29, 30, 2, 3, 17, 18, 19, 25, 8, 9, 23, 26, 27, 29, 2, 4, 13, 22, 29, 30, 21, 22, 23, 25, 26, 27, 1, 2, 3, 4, 5, 6, 6, 8, 13, 18, 19, 26, 6, 8, 13, 14, 15, 29, 4, 5, 15, 16, 19, 25, 3, 9, 11, 21, 27, 29, 3, 5, 17, 24, 29, 30, 3, 10, 14, 15, 19, 24, 7, 11, 14, 15, 17, 29, 2, 3, 5, 16, 25, 28];
rreq = [|2, 2, 2, 2, 2, 2, 5, 4, 3, 3, 2, 1, 4, 4, 4, 4, 4, 4, 5, 3, 3, 3, 1, 1, 4, 4, 3, 3, 2, 1, 2, 2, 2, 2, 2, 2, 2, 2, 2, 2, 1, 1, 3, 3, 3, 2, 2, 2, 5, 4, 4, 3, 3, 2, 3, 3, 3, 2, 2, 2, 4, 3, 3, 3, 3, 3, 2, 1, 1, 1, 1, 1, 4, 4, 4, 4, 4, 4, 3, 3, 3, 3, 3, 3, 4, 4, 4, 4, 4, 4, 4, 3, 3, 3, 3, 3, 3, 3, 3, 3, 2, 2, 3, 3, 3, 3, 3, 3, 1, 1, 1, 1, 1, 1, 2, 2, 2, 2, 2, 2, 4, 3, 3, 3, 2, 1, 3, 2, 2, 2, 2, 2, 2, 2, 2, 2, 2, 2, 4, 3, 3, 3, 3, 3, 4, 3, 2, 2, 2, 1, 4, 4, 4, 3, 2, 2, 2, 2, 2, 1, 1, 1, 4, 3, 3, 3, 2, 2, 3, 3, 3, 3, 3, 3, 3, 3, 3, 3, 3, 3, 3, 3, 3, 3, 3, 3, 4, 4, 3, 3, 2, 1, 4, 4, 4, 3, 2, 2, 3, 3, 3, 2, 2, 1, 2, 2, 2, 2, 2, 2, 1, 1, 1, 1, 1, 1, 2, 2, 2, 2, 1, 1, 4, 4, 4, 4, 4, 4, 1, 1, 1, 1, 1, 1, 2, 2, 2, 2, 2, 2, 4, 4, 3, 3, 1, 1, 2, 2, 2, 2, 2, 2, 1, 1, 1, 1, 1, 1, 4, 3, 3, 2, 1, 1, 5, 3, 3, 2, 1, 1, 1, 1, 1, 1, 1, 1, 5, 3, 3, 2, 1, 1, 1, 1, 1, 1, 1, 1, 5, 4, 3, 2, 1, 1, 3, 2, 2, 2, 2, 2, 2, 2, 2, 2, 2, 2, 3, 3, 2, 2, 1, 1, 4, 3, 3, 2, 2, 1, 4, 4, 4, 4, 3, 3, 4, 4, 4, 4, 4, 4, 4, 4, 4, 4, 3, 3, 5, 4, 3, 3, 2, 2, 2, 2, 2, 2, 2, 2, 2, 2, 2, 2, 1, 1, 5, 5, 5, 5, 5, 5, 1, 1, 1, 1, 1, 1, 2, 2, 2, 2, 2, 2, 2, 1, 1, 1, 1, 1, 4, 3, 3, 3, 2, 2, 3, 3, 3, 2, 1, 1, 3, 2, 2, 1, 1, 1, 5, 4, 4, 3, 3, 3, 3, 2, 2, 2, 2, 2, 5, 4, 4, 3, 3, 3, 3, 3, 3, 3, 3, 3, 5, 4, 4, 4, 4, 4, 4, 3, 3, 3, 3, 3, 3, 3, 3, 3, 2, 2, 4, 4, 4, 4, 4, 4, 2, 2, 2, 2, 2, 2, 2, 1, 1, 1, 1, 1, 1, 1, 1, 1, 1, 1, 3, 2, 2, 2, 2, 2, 4, 3, 3, 3, 3, 3, 3, 3, 3, 2, 2, 1, 4, 3, 3, 3, 3, 3, 3, 3, 3, 3, 3, 3, 3, 3, 3, 2, 2, 1, 5, 4, 4, 3, 3, 3, 2, 2, 2, 2, 1, 1, 3, 2, 2, 2, 1, 1, 3, 3, 3, 3, 3, 3, 4, 4, 4, 4, 4, 4, 3, 3, 2, 2, 1, 1, 2, 2, 2, 2, 2, 2, 5, 4, 4, 4, 4, 4, 5, 4, 4, 3, 2, 2, 2, 2, 2, 2, 2, 2, 4, 4, 4, 4, 4, 4, 4, 4, 3, 3, 2, 2, 5, 3, 3, 3, 1, 1, 4, 3, 3, 3, 3, 3, 3, 2, 2, 2, 2, 2, 4, 3, 3, 3, 3, 3, 3, 3, 3, 2, 2, 2
 |5, 4, 4, 3, 3, 3, 4, 3, 3, 3, 3, 3, 2, 1, 1, 1, 1, 1, 5, 3, 3, 2, 2, 1, 4, 3, 2, 2, 2, 1, 4, 3, 3, 3, 2, 1, 1, 1, 1, 1, 1, 1, 2, 1, 1, 1, 1, 1, 2, 1, 1, 1, 1, 1, 4, 3, 3, 3, 3, 3, 4, 4, 4, 4, 4, 4, 5, 4, 3, 3, 2, 1, 4, 3, 3, 3, 3, 3, 3, 3, 3, 3, 3, 3, 3, 3, 3, 3, 3, 3, 5, 5, 5, 5, 5, 5, 4, 3, 3, 3, 2, 1, 5, 5, 5, 5, 5, 5, 2, 2, 2, 1, 1, 1, 4, 3, 3, 3, 3, 3, 4, 3, 3, 3, 2, 2, 5, 4, 3, 2, 2, 1, 3, 3, 3, 3, 2, 2, 5, 4, 3, 2, 1, 1, 5, 4, 3, 2, 1, 1, 5, 5, 5, 5, 5, 5, 5, 4, 4, 3, 2, 2, 2, 2, 2, 2, 2, 2, 3, 3, 3, 3, 3, 3, 2, 2, 2, 2, 2, 2, 5, 4, 4, 4, 4, 4, 2, 1, 1, 1, 1, 1, 3, 3, 3, 3, 3, 3, 5, 4, 4, 3, 2, 2, 5, 5, 5, 5, 5, 5, 1, 1, 1, 1, 1, 1, 4, 3, 3, 2, 2, 2, 4, 4, 4, 3, 3, 3, 3, 3, 3, 3, 3, 3, 3, 3, 3, 3, 3, 3, 4, 3, 2, 2, 2, 1, 5, 4, 3, 3, 1, 1, 5, 5, 5, 5, 5, 5, 3, 2, 2, 2, 2, 2, 4, 4, 4, 4, 3, 3, 1, 1, 1, 1, 1, 1, 4, 4, 4, 4, 4, 4, 3, 2, 2, 2, 1, 1, 4, 4, 4, 3, 3, 2, 4, 4, 4, 4, 4, 4, 4, 4, 3, 3, 3, 2, 3, 2, 2, 2, 2, 2, 3, 2, 2, 2, 2, 2, 3, 2, 2, 2, 1, 1, 3, 2, 2, 1, 1, 1, 5, 4, 4, 3, 3, 3, 3, 2, 2, 2, 1, 1, 5, 4, 3, 3, 2, 2, 4, 3, 3, 3, 2, 2, 2, 2, 2, 2, 2, 2, 5, 4, 4, 3, 3, 3, 4, 3, 2, 2, 2, 1, 3, 2, 2, 2, 1, 1, 3, 3, 3, 3, 3, 3, 3, 3, 3, 3, 3, 3, 3, 3, 3, 2, 2, 1, 3, 3, 2, 2, 2, 1, 3, 3, 3, 3, 3, 3, 4, 4, 3, 2, 2, 1, 4, 3, 3, 3, 3, 3, 4, 3, 3, 3, 3, 3, 5, 4, 3, 3, 2, 2, 4, 4, 3, 3, 2, 1, 3, 2, 2, 2, 2, 2, 2, 2, 2, 2, 2, 2, 1, 1, 1, 1, 1, 1, 4, 3, 3, 2, 1, 1, 4, 4, 4, 4, 3, 3, 2, 1, 1, 1, 1, 1, 4, 4, 3, 3, 2, 2, 3, 3, 3, 3, 3, 3, 3, 2, 2, 2, 2, 2, 4, 4, 3, 2, 1, 1, 4, 4, 4, 3, 3, 3, 4, 4, 4, 4, 4, 4, 4, 3, 3, 3, 2, 2, 4, 4, 4, 3, 2, 2, 5, 4, 4, 4, 4, 4, 4, 4, 4, 4, 4, 4, 4, 3, 3, 2, 2, 1, 4, 4, 4, 4, 3, 3, 5, 3, 3, 2, 1, 1, 4, 4, 4, 4, 4, 4, 4, 4, 3, 3, 2, 2, 4, 3, 3, 2, 1, 1, 5, 4, 4, 4, 4, 4, 3, 2, 2, 1, 1, 1, 4, 4, 4, 4, 4, 4, 3, 3, 3, 3, 2, 2, 4, 3, 3, 3, 2, 1
 |2, 2, 2, 2, 2, 2, 3, 3, 3, 3, 3, 3, 4, 4, 3, 3, 2, 2, 5, 4, 3, 3, 2, 2, 4, 3, 3, 2, 2, 2, 2, 2, 2, 2, 1, 1, 3, 3, 3, 2, 2, 1, 3, 2, 2, 2, 2, 2, 5, 4, 4, 4, 3, 3, 5, 5, 5, 5, 5, 5, 3, 2, 2, 1, 1, 1, 4, 3, 3, 3, 2, 2, 3, 3, 3, 3, 3, 3, 4, 4, 4, 3, 3, 3, 5, 4, 3, 2, 1, 1, 4, 4, 3, 3, 3, 2, 5, 4, 4, 4, 4, 4, 5, 5, 5, 5, 5, 5, 3, 2, 2, 2, 2, 2, 4, 4, 4, 4, 4, 4, 2, 1, 1, 1, 1, 1, 5, 4, 4, 4, 4, 4, 5, 5, 5, 5, 5, 5, 3, 2, 2, 1, 1, 1, 2, 2, 2, 1, 1, 1, 4, 3, 3, 2, 1, 1, 5, 4, 4, 4, 4, 4, 4, 4, 3, 3, 2, 1, 2, 2, 2, 2, 2, 2, 3, 3, 2, 2, 1, 1, 3, 2, 2, 2, 1, 1, 1, 1, 1, 1, 1, 1, 5, 4, 4, 4, 4, 4, 3, 2, 2, 1, 1, 1, 4, 4, 4, 4, 4, 4, 5, 4, 4, 3, 2, 2, 3, 3, 2, 2, 2, 1, 3, 3, 3, 3, 3, 3, 4, 4, 4, 3, 3, 3, 1, 1, 1, 1, 1, 1, 4, 3, 3, 2, 1, 1, 1, 1, 1, 1, 1, 1, 5, 4, 3, 2, 2, 1, 3, 3, 3, 3, 3, 3, 5, 4, 4, 4, 4, 4, 4, 4, 4, 4, 4, 4, 2, 2, 2, 2, 2, 2, 2, 2, 2, 2, 2, 2, 5, 4, 3, 3, 2, 2, 3, 3, 3, 3, 3, 3, 4, 4, 3, 3, 2, 2, 4, 3, 3, 2, 1, 1, 3, 3, 3, 3, 3, 3, 3, 2, 2, 2, 2, 2, 4, 3, 3, 2, 2, 2, 1, 1, 1, 1, 1, 1, 2, 1, 1, 1, 1, 1, 5, 4, 3, 2, 2, 1, 3, 2, 2, 2, 2, 2, 5, 4, 4, 4, 4, 4, 3, 2, 2, 2, 1, 1, 5, 5, 5, 5, 5, 5, 4, 3, 2, 2, 1, 1, 3, 2, 2, 1, 1, 1, 4, 4, 4, 4, 4, 4, 4, 3, 3, 2, 2, 2, 4, 4, 4, 4, 4, 4, 5, 3, 3, 3, 2, 1, 4, 3, 3, 3, 2, 2, 4, 3, 3, 3, 2, 1, 5, 3, 3, 3, 1, 1, 2, 2, 2, 2, 2, 2, 5, 3, 3, 3, 2, 1, 3, 3, 3, 2, 2, 2, 5, 4, 4, 4, 4, 4, 5, 4, 4, 3, 3, 2, 4, 3, 3, 3, 3, 3, 3, 2, 2, 2, 2, 2, 1, 1, 1, 1, 1, 1, 5, 4, 4, 3, 3, 3, 3, 3, 3, 3, 3, 3, 4, 4, 4, 4, 3, 3, 4, 3, 2, 2, 2, 1, 3, 2, 2, 2, 2, 2, 4, 3, 3, 2, 2, 2, 4, 4, 4, 4, 4, 4, 3, 3, 2, 2, 2, 1, 4, 4, 4, 4, 4, 4, 3, 2, 2, 1, 1, 1, 4, 4, 3, 3, 1, 1, 3, 2, 2, 2, 2, 2, 4, 4, 3, 3, 3, 2, 4, 4, 4, 4, 4, 4, 2, 1, 1, 1, 1, 1, 2, 1, 1, 1, 1, 1, 2, 2, 2, 2, 2, 2, 5, 4, 3, 3, 3, 2, 3, 3, 3, 3, 3, 3, 3, 2, 2, 2, 2, 2, 5, 4, 4, 4, 3, 3
 |3, 3, 3, 3, 3, 3, 4, 4, 4, 4, 4, 4, 3, 3, 3, 3, 3, 3, 3, 3, 3, 3, 3, 3, 1, 1, 1, 1, 1, 1, 4, 4, 4, 4, 4, 4, 2, 2, 2, 2, 2, 2, 3, 3, 3, 3, 3, 3, 2, 1, 1, 1, 1, 1, 2, 2, 2, 2, 2, 2, 2, 2, 2, 2, 2, 2, 4, 3, 3, 3, 2, 1, 2, 2, 2, 2, 2, 2, 1, 1, 1, 1, 1, 1, 2, 2, 2, 1, 1, 1, 3, 2, 2, 2, 2, 2, 1, 1, 1, 1, 1, 1, 4, 4, 3, 2, 1, 1, 3, 3, 3, 3, 2, 2, 5, 3, 3, 3, 1, 1, 1, 1, 1, 1, 1, 1, 4, 3, 3, 3, 3, 3, 3, 3, 3, 2, 2, 2, 5, 3, 3, 3, 1, 1, 3, 3, 3, 2, 2, 1, 4, 4, 4, 3, 3, 3, 2, 2, 2, 2, 2, 2, 3, 3, 3, 2, 2, 2, 3, 2, 2, 2, 2, 2, 2, 2, 2, 2, 2, 2, 1, 1, 1, 1, 1, 1, 5, 5, 5, 5, 5, 5, 5, 4, 4, 4, 4, 4, 5, 3, 3, 3, 2, 1, 4, 4, 4, 4, 3, 3, 4, 3, 3, 3, 2, 2, 4, 4, 4, 3, 3, 2, 3, 3, 3, 3, 3, 3, 5, 4, 3, 2, 2, 1, 3, 3, 3, 3, 3, 3, 5, 4, 4, 4, 3, 3, 3, 2, 2, 2, 2, 2, 4, 4, 4, 4, 3, 3, 3, 3, 3, 3, 3, 3, 2, 1, 1, 1, 1, 1, 4, 4, 4, 4, 4, 4, 4, 4, 4, 4, 3, 3, 5, 4, 4, 4, 4, 4, 5, 3, 3, 3, 2, 1, 2, 2, 2, 2, 1, 1, 3, 2, 2, 2, 1, 1, 1, 1, 1, 1, 1, 1, 2, 2, 2, 2, 2, 2, 1, 1, 1, 1, 1, 1, 3, 3, 3, 3, 3, 3, 2, 2, 2, 1, 1, 1, 3, 3, 3, 2, 2, 1, 4, 3, 2, 2, 2, 1, 3, 3, 3, 3, 3, 3, 4, 4, 4, 4, 4, 4, 1, 1, 1, 1, 1, 1, 3, 3, 3, 2, 1, 1, 1, 1, 1, 1, 1, 1, 4, 3, 3, 3, 3, 3, 5, 4, 4, 3, 2, 2, 5, 3, 3, 2, 1, 1, 5, 4, 3, 3, 2, 2, 5, 4, 4, 4, 4, 4, 4, 4, 3, 3, 2, 1, 3, 3, 2, 2, 1, 1, 5, 4, 4, 4, 4, 4, 4, 4, 4, 4, 4, 4, 3, 2, 2, 2, 2, 2, 5, 5, 5, 5, 5, 5, 5, 4, 4, 4, 4, 4, 3, 2, 2, 1, 1, 1, 4, 4, 4, 3, 3, 3, 2, 1, 1, 1, 1, 1, 4, 3, 3, 3, 3, 3, 2, 1, 1, 1, 1, 1, 5, 4, 4, 3, 3, 3, 4, 3, 3, 3, 3, 3, 4, 4, 4, 3, 3, 2, 2, 2, 2, 2, 2, 2, 4, 4, 4, 4, 4, 4, 2, 2, 2, 2, 2, 2, 1, 1, 1, 1, 1, 1, 5, 4, 4, 4, 4, 4, 2, 2, 2, 1, 1, 1, 1, 1, 1, 1, 1, 1, 1, 1, 1, 1, 1, 1, 4, 3, 3, 3, 2, 2, 5, 4, 4, 4, 4, 4, 2, 2, 2, 2, 2, 2, 4, 3, 2, 2, 1, 1, 2, 2, 2, 2, 2, 2, 3, 3, 3, 2, 2, 2, 3, 2, 2, 2, 1, 1, 5, 4, 4, 4, 4, 4, 4, 4, 4, 4, 3, 3
 |7, 7, 6, 6, 5, 5, 25, 24, 22, 18, 17, 14, 9, 8, 7, 7, 7, 6, 17, 15, 12, 11, 7, 4, 23, 23, 23, 22, 22, 22, 9, 9, 6, 4, 4, 2, 25, 22, 19, 12, 10, 5, 19, 18, 17, 16, 14, 13, 17, 16, 14, 13, 12, 12, 22, 22, 19, 17, 14, 13, 27, 26, 26, 25, 24, 23, 3, 2, 2, 2, 1, 1, 24, 24, 23, 22, 20, 20, 22, 15, 12, 11, 7, 3, 23, 22, 22, 21, 18, 18, 14, 12, 11, 10, 10, 8, 16, 14, 13, 11, 8, 7, 14, 14, 14, 14, 14, 14, 13, 13, 13, 13, 13, 13, 29, 25, 20, 20, 17, 14, 20, 18, 18, 14, 14, 11, 24, 17, 14, 13, 6, 4, 16, 16, 15, 15, 15, 14, 28, 26, 25, 25, 22, 21, 13, 13, 13, 12, 12, 12, 21, 21, 19, 18, 17, 16, 9, 8, 8, 7, 7, 7, 14, 14, 14, 14, 14, 14, 23, 22, 21, 17, 15, 13, 17, 16, 16, 15, 15, 14, 2, 2, 2, 2, 2, 2, 8, 7, 6, 5, 4, 4, 25, 22, 20, 18, 16, 15, 12, 11, 9, 6, 4, 2, 26, 24, 24, 23, 21, 21, 7, 7, 7, 7, 7, 7, 11, 9, 9, 8, 6, 6, 28, 28, 27, 27, 26, 25, 22, 17, 14, 12, 7, 3, 11, 10, 7, 5, 5, 3, 14, 14, 13, 13, 11, 11, 26, 24, 19, 13, 11, 9, 15, 13, 12, 11, 10, 9, 20, 20, 18, 17, 16, 16, 23, 20, 18, 14, 11, 7, 23, 19, 19, 13, 10, 8, 22, 21, 21, 20, 19, 18, 27, 23, 21, 14, 11, 11, 13, 13, 12, 12, 11, 11, 13, 13, 13, 12, 11, 11, 20, 20, 20, 20, 19, 19, 18, 17, 15, 14, 14, 12, 23, 23, 22, 21, 20, 19, 16, 15, 15, 15, 15, 15, 21, 20, 15, 13, 9, 6, 22, 22, 22, 22, 22, 22, 21, 20, 18, 17, 16, 14, 10, 10, 10, 9, 9, 9, 28, 24, 22, 15, 11, 11, 10, 10, 9, 9, 9, 8, 19, 18, 15, 11, 8, 5, 24, 20, 19, 15, 10, 7, 25, 24, 24, 24, 23, 23, 20, 17, 11, 11, 8, 3, 11, 11, 11, 10, 10, 10, 20, 19, 17, 16, 16, 15, 28, 26, 24, 20, 16, 13, 28, 28, 27, 25, 25, 24, 28, 26, 25, 23, 23, 21, 12, 11, 10, 9, 9, 7, 10, 10, 9, 9, 8, 8, 25, 23, 19, 16, 10, 8, 19, 18, 15, 11, 5, 4, 15, 12, 11, 11, 10, 8, 23, 21, 18, 16, 14, 13, 14, 10, 8, 8, 4, 3, 25, 19, 16, 15, 12, 10, 24, 20, 19, 13, 8, 5, 26, 25, 24, 21, 19, 16, 29, 29, 28, 27, 25, 25, 18, 18, 17, 17, 15, 15, 9, 9, 8, 6, 5, 4, 18, 17, 15, 12, 9, 8, 22, 20, 19, 17, 16, 14, 18, 16, 16, 15, 14, 14, 23, 23, 22, 21, 20, 19, 26, 26, 24, 21, 19, 18, 27, 26, 25, 25, 24, 23, 19, 18, 17, 15, 14, 13, 12, 11, 10, 9, 8, 6, 28, 25, 22, 17, 17, 13, 16, 12, 12, 9, 9, 7, 20, 19, 18, 17, 15, 15, 20, 20, 20, 20, 20, 20, 15, 13, 11, 10, 8, 8, 10, 9, 8, 8, 8, 7, 21, 21, 20, 18, 17, 17, 26, 24, 19, 13, 9, 2, 20, 18, 16, 13, 7, 4, 17, 16, 15, 12, 11, 9
 |22, 22, 21, 20, 19, 18, 20, 18, 17, 16, 14, 14, 9, 9, 8, 5, 4, 3, 11, 11, 10, 8, 8, 7, 21, 20, 13, 12, 8, 2, 17, 15, 11, 8, 4, 2, 22, 22, 22, 22, 22, 22, 21, 20, 16, 16, 13, 11, 24, 22, 18, 16, 10, 8, 25, 20, 17, 13, 8, 6, 15, 14, 13, 12, 11, 10, 24, 23, 19, 12, 11, 7, 21, 17, 13, 11, 8, 5, 15, 12, 12, 9, 6, 6, 27, 27, 27, 27, 26, 25, 24, 20, 19, 16, 10, 8, 8, 6, 6, 5, 5, 4, 6, 5, 6, 6, 7, 6, 15, 15, 13, 13, 11, 10, 19, 14, 13, 12, 6, 6, 26, 21, 20, 18, 17, 13, 20, 20, 19, 19, 18, 18, 17, 16, 16, 15, 15, 14, 13, 9, 9, 7, 5, 2, 6, 4, 4, 2, 1, 1, 29, 27, 26, 25, 22, 22, 8, 7, 6, 7, 7, 6, 25, 24, 24, 22, 22, 21, 30, 27, 23, 22, 19, 17, 30, 25, 18, 13, 7, 2, 26, 26, 24, 22, 21, 19, 28, 25, 16, 13, 10, 7, 9, 9, 9, 9, 9, 9, 20, 18, 17, 15, 13, 13, 25, 21, 17, 14, 10, 4, 28, 26, 25, 24, 23, 22, 18, 15, 14, 11, 9, 8, 9, 8, 7, 6, 6, 5, 17, 16, 15, 13, 11, 10, 30, 22, 21, 16, 10, 6, 8, 7, 7, 7, 6, 5, 22, 22, 20, 18, 17, 16, 26, 23, 23, 22, 20, 19, 25, 18, 18, 15, 12, 9, 25, 22, 18, 17, 9, 7, 16, 15, 14, 14, 13, 13, 28, 21, 20, 18, 12, 10, 28, 24, 22, 18, 13, 12, 26, 24, 24, 20, 19, 15, 10, 8, 7, 5, 3, 2, 23, 23, 23, 22, 23, 23, 19, 16, 16, 12, 7, 5, 22, 22, 20, 19, 18, 18, 24, 20, 17, 15, 12, 9, 10, 10, 9, 7, 7, 6, 14, 12, 11, 11, 9, 8, 26, 21, 17, 13, 6, 4, 15, 12, 11, 9, 7, 5, 23, 23, 21, 17, 16, 14, 14, 13, 13, 12, 10, 10, 26, 26, 23, 22, 19, 18, 10, 10, 10, 10, 10, 10, 22, 21, 20, 18, 16, 14, 9, 9, 8, 7, 6, 5, 25, 23, 20, 16, 13, 11, 12, 9, 7, 7, 6, 3, 23, 18, 17, 13, 9, 6, 25, 24, 17, 14, 12, 7, 18, 15, 15, 13, 10, 10, 29, 29, 28, 28, 27, 27, 23, 23, 22, 20, 20, 18, 27, 27, 26, 25, 23, 23, 26, 25, 24, 23, 23, 22, 21, 21, 21, 20, 20, 20, 12, 10, 9, 8, 7, 7, 16, 14, 14, 13, 10, 9, 26, 22, 20, 18, 15, 14, 22, 20, 18, 18, 16, 15, 19, 18, 18, 16, 15, 15, 15, 14, 14, 14, 14, 14, 24, 23, 22, 22, 22, 21, 27, 25, 24, 21, 18, 17, 13, 11, 10, 10, 8, 5, 13, 12, 12, 12, 12, 12, 22, 17, 16, 10, 7, 6, 19, 16, 16, 11, 9, 9, 29, 28, 28, 26, 26, 24, 13, 13, 13, 12, 12, 12, 27, 24, 22, 18, 15, 12, 16, 13, 11, 7, 4, 4, 17, 17, 16, 16, 16, 15, 24, 23, 22, 20, 18, 18, 24, 24, 21, 16, 14, 11, 25, 24, 23, 22, 21, 20, 13, 11, 11, 10, 9, 8, 6, 5, 4, 3, 3, 2, 19, 18, 18, 18, 18, 18, 26, 25, 25, 24, 24, 24, 12, 11, 8, 8, 6, 4, 9, 7, 5, 5, 4, 2|];